data;

param num_top:=3;

#nodes and edges of the physical network
param n := 10;

set E := (1,2) (1,3) (1,7) (2,4) (2,7) (3,5) (4,8) (5,6) (5,7) (6,7) (6,9) (7,8) (7,9) (8,10) (9,10) ;

#nodes and edges of the virtual networks
set Nl[1] := 5 1 4 7 ;
set Nl[2] := 10 4 8 1 ;
set Nl[3] := 3 2 1 9 ;

set El[1] := (1,5) (1,4) (4,7) (5,7) (1,7) (4,5) ;
set El[2] := (4,10) (4,8) (1,8) (1,10) (8,10) (1,4) ;
set El[3] := (2,3) (1,2) (1,9) (3,9) (2,9) (1,3) ;
